clingo version 5.4.1
Reading from provaASP23.lp
Solving...
Answer: 1
assign(1,47,12) assign(2,6,6) assign(3,6,6) assign(4,48,12) assign(5,47,12) assign(6,4,6) assign(7,6,6) assign(8,48,12) assign(9,4,6) assign(10,48,12) assign(11,44,12) assign(12,46,12) assign(13,13,6) assign(14,33,6) assign(15,13,6) assign(16,47,12) assign(17,48,12) assign(18,46,12) assign(19,19,5) assign(20,13,6) assign(21,37,2) assign(22,4,6) assign(23,47,12) assign(24,37,2) assign(25,37,2) assign(26,4,6) assign(27,19,5) assign(28,33,6) assign(29,6,6) assign(30,46,12) assign(31,13,6) assign(32,33,6) assign(33,19,5) assign(34,37,2) assign(35,19,5) count_seats_occupied(1,15,0) count_seats_occupied(1,29,0) count_seats_occupied(1,30,0) count_seats_occupied(1,31,0) count_seats_occupied(2,11,0) count_seats_occupied(2,12,0) count_seats_occupied(2,14,0) count_seats_occupied(2,37,4) count_seats_occupied(3,7,0) count_seats_occupied(3,8,0) count_seats_occupied(3,9,0) count_seats_occupied(3,10,0) count_seats_occupied(4,23,0) count_seats_occupied(4,27,0) count_seats_occupied(4,34,0) count_seats_occupied(4,35,0) count_seats_occupied(5,16,0) count_seats_occupied(5,18,0) count_seats_occupied(5,19,4) count_seats_occupied(5,20,0) count_seats_occupied(6,4,4) count_seats_occupied(6,6,4) count_seats_occupied(6,13,4) count_seats_occupied(6,33,3) count_seats_occupied(7,2,0) count_seats_occupied(7,36,0) count_seats_occupied(7,38,0) count_seats_occupied(7,39,0) count_seats_occupied(8,5,0) count_seats_occupied(8,21,0) count_seats_occupied(8,22,0) count_seats_occupied(8,32,0) count_seats_occupied(9,41,0) count_seats_occupied(9,42,0) count_seats_occupied(9,43,0) count_seats_occupied(9,45,0) count_seats_occupied(10,1,0) count_seats_occupied(10,3,0) count_seats_occupied(10,17,0) count_seats_occupied(10,24,0) count_seats_occupied(11,25,0) count_seats_occupied(11,26,0) count_seats_occupied(11,28,0) count_seats_occupied(11,40,0) count_seats_occupied(12,44,1) count_seats_occupied(12,46,3) count_seats_occupied(12,47,4) count_seats_occupied(12,48,4)
Optimization: 4
Answer: 2
assign(1,47,12) assign(2,6,6) assign(3,6,6) assign(4,48,12) assign(5,47,12) assign(6,4,6) assign(7,6,6) assign(8,48,12) assign(9,4,6) assign(10,48,12) assign(11,44,12) assign(12,46,12) assign(13,13,6) assign(14,33,6) assign(15,13,6) assign(16,47,12) assign(17,48,12) assign(18,46,12) assign(19,12,2) assign(20,13,6) assign(21,37,2) assign(22,4,6) assign(23,47,12) assign(24,37,2) assign(25,37,2) assign(26,4,6) assign(27,12,2) assign(28,33,6) assign(29,6,6) assign(30,46,12) assign(31,13,6) assign(32,33,6) assign(33,12,2) assign(34,37,2) assign(35,46,12) count_seats_occupied(1,15,0) count_seats_occupied(1,29,0) count_seats_occupied(1,30,0) count_seats_occupied(1,31,0) count_seats_occupied(2,11,0) count_seats_occupied(2,12,3) count_seats_occupied(2,14,0) count_seats_occupied(2,37,4) count_seats_occupied(3,7,0) count_seats_occupied(3,8,0) count_seats_occupied(3,9,0) count_seats_occupied(3,10,0) count_seats_occupied(4,23,0) count_seats_occupied(4,27,0) count_seats_occupied(4,34,0) count_seats_occupied(4,35,0) count_seats_occupied(5,16,0) count_seats_occupied(5,18,0) count_seats_occupied(5,19,0) count_seats_occupied(5,20,0) count_seats_occupied(6,4,4) count_seats_occupied(6,6,4) count_seats_occupied(6,13,4) count_seats_occupied(6,33,3) count_seats_occupied(7,2,0) count_seats_occupied(7,36,0) count_seats_occupied(7,38,0) count_seats_occupied(7,39,0) count_seats_occupied(8,5,0) count_seats_occupied(8,21,0) count_seats_occupied(8,22,0) count_seats_occupied(8,32,0) count_seats_occupied(9,41,0) count_seats_occupied(9,42,0) count_seats_occupied(9,43,0) count_seats_occupied(9,45,0) count_seats_occupied(10,1,0) count_seats_occupied(10,3,0) count_seats_occupied(10,17,0) count_seats_occupied(10,24,0) count_seats_occupied(11,25,0) count_seats_occupied(11,26,0) count_seats_occupied(11,28,0) count_seats_occupied(11,40,0) count_seats_occupied(12,44,1) count_seats_occupied(12,46,4) count_seats_occupied(12,47,4) count_seats_occupied(12,48,4)
Optimization: 3
SATISFIABLE

TIME LIMIT   : 1
Models       : 2+
  Optimum    : unknown
Optimization : 3
Calls        : 1
Time         : 300.209s (Solving: 293.17s 1st Model: 2.58s Unsat: 0.00s)
CPU Time     : 277.112s
